Colvarstrajfrequency    1000
Colvarsrestartfrequency 10000

colvar {
    name ProjectionZ
    width 0.1
    lowerBoundary XX
    upperBoundary XX
    lowerWall XX
    upperWall XX
    lowerWallConstant 10.0
    upperWallConstant 10.0
    outputAppliedForce on

    distanceZ {
        main  {
           atomnumbers {
                   1 2 3 4 5 6 7 8 9 10
                   11 12 13 14 15 16 17 18 19 20
                   21 22 23 24 25 26 27 28 29 30
                   31 32 33 34 35 36 37 38 39 40
                   41 42 43 44 45 46 47 48 49 50
                   51 52 53 54 55 56 57 58 59 60
                   61 62 63 64 65 66 67 68 69 70
                   71 72 73 74 75 76 77 78 79 80
                   81 82 83 84 85 86 87 88 89 90
                   91 92 93 94 95 96 97 98 99 100
                   101 102 103 104 105 106 107 108 109 110
                   111 112 113 114 115 116 117 118 119 120
                   121 122 123 124 125 126 127 128 129 130
                   131 132 133 134 135 136 137 138 139 140
                   141 142 143 144 145 146 147 148 149 150
                   151 152 153 154 155 156 157 158 159 160
                   161 162 163 164 165 166 167 168 169 170
                   171 172 173 174 175 176 177 178 179 180
                   181 182 183 184 185 186 187 188 189 190
                   191 192 193 194 195 196 197 198 199 200
                   201 202 203 204 205 206 207 208 209 210
                   211 212 213 214 215 216 217 218 219 220
                   221 222 223 224 225 226 227 228 229 230
                   231
                } 
        }
              ref {
            atomNumbers {
                4395 4517 4657 4795 4917 5050 5181 5321 5452 5574
                5714 5852 5985 6125 6265 6405 6536 6676 6814 6945
                7085 7209 7349 7480 7602 7733 7873 8011 8149 8280
                8420 8549 8689 8827 8949 9089 9223 9366 9509 9652
                9783 9923 10063 10194 10316 10456 10578 10718 10849 10987
                11121 11252 11385 11525 11656 11780 11920 12042 12182 12309
                12449 12576 12716 12854 12985 13109 13242 13382 13513 13644
                13775 13915 14049 14189 14311 14451 14582 14713 14844 14984
                15115 15253 15393 15524 15648 15779 15910 16041 16181 16312
                16443 16583 16721 16846 16977 17110 17241 17381 17519 17643
                17774 17914 18045 18176 18314 18443 18583 18717 18839 18970
                19110 19232 19372 19503 19630 19761 19901 20032 20163 20297
                20437 20568 20706 20828 20968 21108 21230 21370 21503 21643
                21774 21905 22036 22169 22309 22431 26715 26846 26977 27117
                27239 27370 27501 27641 27770 27913 28053 28184 28308 28439
                28570 28703 28843 28983 29117 29246 29377 29517 29655 29793
                29915 30055 30186 30326 30457 30588 30728 30852 30983 31116
                31247 31387 31521 31652 31795 31938 32078 32209 32349 32471
                32611 32749 32887 33027 33158 33298 33429 33553 33684 33824
                33955 34095 34219 34350 34490 34630 34761 34886 35026 35148
                35288 35428 35559 35688 35828 35959 36097 36228 36362 36486
                36626 36766 36906 37028 37159 37290 37430 37561 37692 37832
                37963 38103 38227 38358 38498 38622 38753 38893 39027 39158
                39287 39427 39558 39689 39820 39951 40091 40222 40362 40496
                40630 40752 40885 41025 41159 41290 41421 41555 41686 41826
                41964 42093 42224 42357 42488 42628 42752 42883 43023 43163
                43292 43432 43563 43694 43825 43954 44085 44225 44356 44480
                44620 44751
            }
        }

        axis (0.0, 0.0, 1.0)
    }
}

abf {
    colvars             ProjectionZ
    fullSamples         1000
    historyFreq         10000
}



