# merge/mergeColvars.inp
colvarsTrajFrequency 0
colvarsRestartFrequency 0

colvar {
  name ProjectionZ
  width 0.1
  lowerBoundary -40.0
  upperBoundary  40.0

  distanceZ {
    main { atomNumbers { 1 2 3 4 5 6 7 8 9 10 11 12 13 14 15 16 17 18 19 20 21 22 23 24 25 26 27 28 29 30 31 } }
    ref  { atomNumbers {
     4181 4312 4443 4583 4705 4836 4976 5107 5238 5378 5509 5642 5773 5913 6051 6182 6304 6435 6566 6699 6830 6970 7099 7230 7370 7501 7623 7754 7894 8025 8154 8294 8434 8565 8705 8839 8980 9123 9266 9409 9549 9680 9802 9942 10080 10214 10336 10476 10610 10748 10870 11010 11141 11263 11403 11543 11676 11816 11954 12076 12216 12338 12478 12609 12738 12878 13016 13156 13287 13427 13549 13682 13822 13946 14086 14226 14357 14495 14626 14757 14897 15028 15168 15299 15439 15564 15704 15838 15969 16100 16240 16362 16495 16626 16766 16904 17044 17178 17316 17445 17576 17716 17856 17996 18127 18251 18384 18515 18646 18786 18917 19048 19181 19312 19445 19576 19709 19849 19987 20125 20256 20387 20518 20645 20778 20918 21042 21182 21304 21444 21578 21709 21831 21971 22093 22224 26508 26639 26770 26901 27041 27175 27315 27446 27586 27711 27842 27973 28113 28244 28384 28515 28649 28780 28913 29044 29175 29315 29448 29591 29731 29853 29993 30124 30255 30395 30517 30657 30791 30924 31064 31202 31343 31483 31607 31750 31881 32014 32154 32285 32425 32559 32681 32821 32959 33090 33221 33352 33490 33614 33754 33878 34018 34149 34273 34406 34539 34679 34808 34948 35086 35215 35355 35495 35617 35748 35888 36019 36159 36283 36423 36554 36685 36825 36959 37081 37212 37343 37474 37605 37745 37883 38005 38145 38267 38400 38531 38671 38809 38947 39069 39209 39347 39487 39627 39761 39892 40023 40152 40292 40414 40545 40685 40807 40938 41078 41207 41347 41478 41600 41740 41865 41998 42138 42271 42411 42542 42680 42820 42942 43075 43215 43346 43486 43617 43746 43886 44026 44148 44288 44419 44544
    } }
    axis (0.0, 0.0, 1.0)
  }
}

abf {
  colvars ProjectionZ

  # Aqui: lê os arquivos winXX.count e winXX.grad do diretório merge/
  inputPrefix {
    win01 win02 win03 win04 win05 win06 win07 win08 win09 win10
    win11 win12 win13 win14 win15 win16 win17 win18 win19 win20
    win21 win22
  }
}
